data/exact/exact_035.gr
p tdp 35 70
1 2
1 3
1 4
1 11
2 3
2 4
3 21
3 22
3 4
4 34
4 21
4 22
5 6
5 7
5 9
6 7
6 8
7 10
8 13
8 9
8 16
8 12
8 15
9 16
9 10
9 15
10 16
11 34
11 32
11 35
12 13
12 14
12 26
12 28
12 15
13 14
13 15
14 26
14 28
17 18
17 21
17 22
17 19
17 20
18 19
18 20
19 21
19 22
19 20
21 22
23 24
23 25
23 26
23 27
23 28
24 25
24 26
24 27
24 28
25 31
27 33
29 30
29 31
29 33
29 35
30 31
30 32
30 33
32 34
34 35
