solutions/best/exact/exact_035.sol
9
2
3
4
17
6
7
8
9
12
16
34
14
15
11
8
7
19
17
11
18
22
3
31
23
24
24
24
24
35
31
33
30
12
0
30
